p edge 108 584
e 1 12
e 1 16
e 1 36
e 1 51
e 1 56
e 1 70
e 1 99
e 1 105
e 2 14
e 2 16
e 2 18
e 2 21
e 2 34
e 2 53
e 2 85
e 2 97
e 2 99
e 2 106
e 3 14
e 3 28
e 3 36
e 3 43
e 3 63
e 3 69
e 3 79
e 3 81
e 3 84
e 3 93
e 3 106
e 4 17
e 4 19
e 4 50
e 4 51
e 4 52
e 4 53
e 4 60
e 4 67
e 4 71
e 4 76
e 4 81
e 5 11
e 5 12
e 5 14
e 5 30
e 5 44
e 5 50
e 5 83
e 5 96
e 6 9
e 6 12
e 6 20
e 6 46
e 6 52
e 6 59
e 6 66
e 6 68
e 6 87
e 6 97
e 6 100
e 6 101
e 7 11
e 7 12
e 7 13
e 7 30
e 7 50
e 7 62
e 7 69
e 7 71
e 7 89
e 8 24
e 8 50
e 8 51
e 8 62
e 8 72
e 8 75
e 8 82
e 8 85
e 8 87
e 8 94
e 9 10
e 9 15
e 9 20
e 9 39
e 9 42
e 9 47
e 9 48
e 9 58
e 9 71
e 9 78
e 9 82
e 9 97
e 9 101
e 9 105
e 9 107
e 10 12
e 10 25
e 10 26
e 10 31
e 10 49
e 10 57
e 10 66
e 10 89
e 10 91
e 10 99
e 10 100
e 10 106
e 11 24
e 11 58
e 11 59
e 11 67
e 11 73
e 11 77
e 11 80
e 11 94
e 11 103
e 12 20
e 12 21
e 12 31
e 12 36
e 12 49
e 12 58
e 12 76
e 12 78
e 12 79
e 12 98
e 13 19
e 13 20
e 13 24
e 13 26
e 13 37
e 13 42
e 13 45
e 13 57
e 13 59
e 13 61
e 13 63
e 13 80
e 13 85
e 13 92
e 14 23
e 14 34
e 14 37
e 14 48
e 14 50
e 14 67
e 14 70
e 14 74
e 14 86
e 14 88
e 15 29
e 15 30
e 15 32
e 15 46
e 15 48
e 15 57
e 15 58
e 15 60
e 15 77
e 15 78
e 15 81
e 15 83
e 15 91
e 15 92
e 15 96
e 15 102
e 15 106
e 15 108
e 16 18
e 16 56
e 16 57
e 16 61
e 16 62
e 16 66
e 16 69
e 16 73
e 16 95
e 16 96
e 16 106
e 17 18
e 17 36
e 17 73
e 17 77
e 17 81
e 17 85
e 17 107
e 18 24
e 18 26
e 18 40
e 18 52
e 18 57
e 18 73
e 18 83
e 18 86
e 18 107
e 19 41
e 19 47
e 19 53
e 19 64
e 19 73
e 19 78
e 19 88
e 19 97
e 20 27
e 20 48
e 20 51
e 20 79
e 20 92
e 20 103
e 20 107
e 21 27
e 21 61
e 21 64
e 21 66
e 21 69
e 21 74
e 21 88
e 21 90
e 21 92
e 21 105
e 21 107
e 22 39
e 22 44
e 22 70
e 22 89
e 22 98
e 22 105
e 23 24
e 23 56
e 23 63
e 23 70
e 23 81
e 23 82
e 23 87
e 23 92
e 23 108
e 24 33
e 24 37
e 24 49
e 24 86
e 24 99
e 24 100
e 25 57
e 25 95
e 25 107
e 26 28
e 26 42
e 26 74
e 26 99
e 27 40
e 27 42
e 27 43
e 27 44
e 27 53
e 27 56
e 27 60
e 27 63
e 27 67
e 27 77
e 27 79
e 27 100
e 28 29
e 28 67
e 28 69
e 28 87
e 28 98
e 28 102
e 28 107
e 28 108
e 29 54
e 29 62
e 29 63
e 29 67
e 29 90
e 30 32
e 30 47
e 30 53
e 30 54
e 30 82
e 30 89
e 30 103
e 31 41
e 31 43
e 31 60
e 31 67
e 31 70
e 31 75
e 31 84
e 31 106
e 32 39
e 32 48
e 32 49
e 32 51
e 32 59
e 32 61
e 32 67
e 32 70
e 32 81
e 32 93
e 32 94
e 32 107
e 33 37
e 33 50
e 33 59
e 33 65
e 33 72
e 33 77
e 33 82
e 33 85
e 33 88
e 33 91
e 33 98
e 33 102
e 33 108
e 34 61
e 34 65
e 34 78
e 34 82
e 35 39
e 35 46
e 35 65
e 35 71
e 35 82
e 35 89
e 35 99
e 35 100
e 36 60
e 36 61
e 36 74
e 36 80
e 36 106
e 37 42
e 37 53
e 37 54
e 37 56
e 37 72
e 37 74
e 37 85
e 37 86
e 37 93
e 37 101
e 38 51
e 38 61
e 38 65
e 38 75
e 38 87
e 38 90
e 38 92
e 39 58
e 39 83
e 39 89
e 39 100
e 39 102
e 39 105
e 40 43
e 40 47
e 40 81
e 40 85
e 40 93
e 41 56
e 41 59
e 41 68
e 41 73
e 41 75
e 41 97
e 41 99
e 41 105
e 41 108
e 42 51
e 42 60
e 42 75
e 42 77
e 42 98
e 43 51
e 43 56
e 43 59
e 43 79
e 43 101
e 43 107
e 43 108
e 44 45
e 44 62
e 44 79
e 44 92
e 44 97
e 45 48
e 45 84
e 45 89
e 46 106
e 46 108
e 47 54
e 47 81
e 47 107
e 48 52
e 48 71
e 48 101
e 49 66
e 49 69
e 49 73
e 49 78
e 49 92
e 49 102
e 50 67
e 50 69
e 50 71
e 50 74
e 50 82
e 51 54
e 51 65
e 51 77
e 51 82
e 51 89
e 51 104
e 52 55
e 52 63
e 52 64
e 52 68
e 52 72
e 52 73
e 52 86
e 53 65
e 53 71
e 53 81
e 53 83
e 53 85
e 53 86
e 53 91
e 53 92
e 53 105
e 53 108
e 54 90
e 54 93
e 54 104
e 55 97
e 55 99
e 55 100
e 55 102
e 55 104
e 56 63
e 56 76
e 56 90
e 56 100
e 57 71
e 57 79
e 57 84
e 57 99
e 57 105
e 57 108
e 58 61
e 58 71
e 58 92
e 58 93
e 59 61
e 59 64
e 59 69
e 59 72
e 59 85
e 59 107
e 60 69
e 60 72
e 60 78
e 60 93
e 60 105
e 61 67
e 61 68
e 61 84
e 61 92
e 61 93
e 61 104
e 61 108
e 62 63
e 62 71
e 62 85
e 62 97
e 63 64
e 63 76
e 63 88
e 63 90
e 63 91
e 63 94
e 63 101
e 64 85
e 64 94
e 65 67
e 65 69
e 65 70
e 65 98
e 66 81
e 66 98
e 66 102
e 66 103
e 67 69
e 67 81
e 67 103
e 68 72
e 68 76
e 68 77
e 69 81
e 70 73
e 70 80
e 70 83
e 70 108
e 72 73
e 72 86
e 72 94
e 72 98
e 72 104
e 73 81
e 73 87
e 74 79
e 74 94
e 74 97
e 74 104
e 75 86
e 75 87
e 75 89
e 75 94
e 75 100
e 75 107
e 76 83
e 76 97
e 77 79
e 77 91
e 77 96
e 77 99
e 77 101
e 77 106
e 77 108
e 78 80
e 78 85
e 78 86
e 78 94
e 78 97
e 78 101
e 79 83
e 79 87
e 79 91
e 79 92
e 79 103
e 79 106
e 80 84
e 80 93
e 80 101
e 80 106
e 80 108
e 81 85
e 81 96
e 81 104
e 82 85
e 82 97
e 82 102
e 82 107
e 82 108
e 83 93
e 83 106
e 84 87
e 84 88
e 84 104
e 85 88
e 85 90
e 85 98
e 85 101
e 86 108
e 87 106
e 88 89
e 88 106
e 89 91
e 89 100
e 89 102
e 90 97
e 92 104
e 93 96
e 94 95
e 94 97
e 94 101
e 94 105
e 95 98
e 95 102
e 95 103
e 96 102
e 96 106
e 97 100
e 100 104
e 102 105
e 102 106
